8,8	0,0	19,1	18,2	0,0	0,0	0,0	0,0	0,0	12,8
14,6	7,8	0,0	14,6	12,9	0,0	0,0	17,8	0,0	0,0
0,0	0,0	18,0	0,0	10,4	12,7	0,0	0,0	5,4	0,0
14,5	0,0	5,7	0,0	0,0	0,0	11,7	0,0	0,0	0,0
0,0	15,0	0,0	5,2	19,7	0,0	0,0	19,1	0,0	0,0
0,0	15,2	16,9	0,0	16,6	19,3	0,0	0,0	18,4	0,0
0,0	11,6	0,0	10,9	0,0	0,0	13,7	0,0	0,0	15,1
5,7	0,0	19,0	0,0	0,0	0,0	0,0	0,0	0,0	15,2
0,0	16,1	0,0	19,7	6,1	0,0	0,0	7,2	0,0	0,0
0,0	0,0	19,5	0,0	0,0	7,5	13,9	0,0	0,0	18,7
0,0	15,3	0,0	0,0	17,7	0,0	5,3	0,0	12,1	17,7
5,2	0,0	10,3	0,0	5,2	0,0	5,2	7,6	19,4	0,0
0,0	9,1	0,0	0,0	0,0	10,7	0,0	17,2	18,4	15,3
8,8	8,2	9,9	0,0	0,0	19,4	0,0	5,6	5,2	0,0
17,5	0,0	17,1	0,0	16,5	16,9	19,5	17,1	0,0	0,0
0,0	6,8	0,0	7,0	0,0	5,8	0,0	18,6	0,0	0,0
6,9	0,0	18,8	9,2	5,3	0,0	0,0	14,2	0,0	0,0
0,0	0,0	17,7	0,0	0,0	6,6	18,7	0,0	8,2	14,5
11,7	0,0	0,0	7,7	15,5	10,4	18,8	17,8	0,0	15,7
0,0	5,4	0,0	15,1	0,0	0,0	11,7	0,0	8,4	8,2
									
3,8	3,6	3,3	3,6	4,2	3,4	3,4	2,7	4,4	4,3
